p cnf 389 614
c 125 colorV(1,green)
c 126 colorV(2,green)
c 127 colorV(3,green)
c 128 colorV(4,green)
c 129 colorV(5,green)
c 130 colorV(6,green)
c 131 colorV(7,green)
c 132 colorV(8,green)
c 133 colorV(9,green)
c 134 colorV(10,green)
c 135 colorV(11,green)
c 136 colorV(12,green)
c 137 colorV(13,green)
c 138 colorV(14,green)
c 139 colorV(15,green)
c 140 colorV(16,green)
c 141 colorV(17,green)
c 142 colorV(18,green)
c 143 colorV(19,green)
c 144 colorV(20,green)
c 145 colorV(21,green)
c 146 colorV(22,green)
c 147 colorV(23,green)
c 148 colorV(24,green)
c 149 colorV(25,green)
c 150 colorV(26,green)
c 151 colorV(27,green)
c 152 colorV(28,green)
c 153 colorV(29,green)
c 154 colorV(30,green)
c 155 colorV(31,green)
c 156 colorV(32,green)
c 157 colorV(33,green)
c 158 colorV(34,green)
c 159 colorV(35,green)
c 160 colorV(36,green)
c 161 colorV(37,green)
c 162 colorV(38,green)
c 163 colorV(39,green)
c 164 colorV(40,green)
c 165 colorV(41,green)
c 166 colorV(42,green)
c 167 colorV(43,green)
c 168 colorV(44,green)
c 169 colorV(45,green)
c 170 colorV(46,green)
c 171 colorV(47,green)
c 172 colorV(48,green)
c 173 colorV(49,green)
c 174 colorV(50,green)
c 175 colorV(51,green)
c 176 colorV(52,green)
c 177 colorV(53,green)
c 178 colorV(54,green)
c 179 colorV(55,green)
c 180 colorV(56,green)
c 181 colorV(1,blue)
c 182 colorV(2,blue)
c 183 colorV(3,blue)
c 184 colorV(4,blue)
c 185 colorV(5,blue)
c 186 colorV(6,blue)
c 187 colorV(7,blue)
c 188 colorV(8,blue)
c 189 colorV(9,blue)
c 190 colorV(10,blue)
c 191 colorV(11,blue)
c 192 colorV(12,blue)
c 193 colorV(13,blue)
c 194 colorV(14,blue)
c 195 colorV(15,blue)
c 196 colorV(16,blue)
c 197 colorV(17,blue)
c 198 colorV(18,blue)
c 199 colorV(19,blue)
c 200 colorV(20,blue)
c 201 colorV(21,blue)
c 202 colorV(22,blue)
c 203 colorV(23,blue)
c 204 colorV(24,blue)
c 205 colorV(25,blue)
c 206 colorV(26,blue)
c 207 colorV(27,blue)
c 208 colorV(28,blue)
c 209 colorV(29,blue)
c 210 colorV(30,blue)
c 211 colorV(31,blue)
c 212 colorV(32,blue)
c 213 colorV(33,blue)
c 214 colorV(34,blue)
c 215 colorV(35,blue)
c 216 colorV(36,blue)
c 217 colorV(37,blue)
c 218 colorV(38,blue)
c 219 colorV(39,blue)
c 220 colorV(40,blue)
c 221 colorV(41,blue)
c 222 colorV(42,blue)
c 223 colorV(43,blue)
c 224 colorV(44,blue)
c 225 colorV(45,blue)
c 226 colorV(46,blue)
c 227 colorV(47,blue)
c 228 colorV(48,blue)
c 229 colorV(49,blue)
c 230 colorV(50,blue)
c 231 colorV(51,blue)
c 232 colorV(52,blue)
c 233 colorV(53,blue)
c 234 colorV(54,blue)
c 235 colorV(55,blue)
c 236 colorV(56,blue)
125 278 0
-125 -278 0
278 125 0
-278 -125 0
126 279 0
-126 -279 0
279 126 0
-279 -126 0
127 280 0
-127 -280 0
280 127 0
-280 -127 0
128 281 0
-128 -281 0
281 128 0
-281 -128 0
129 282 0
-129 -282 0
282 129 0
-282 -129 0
130 283 0
-130 -283 0
283 130 0
-283 -130 0
131 284 0
-131 -284 0
284 131 0
-284 -131 0
132 285 0
-132 -285 0
285 132 0
-285 -132 0
133 286 0
-133 -286 0
286 133 0
-286 -133 0
134 287 0
-134 -287 0
287 134 0
-287 -134 0
135 288 0
-135 -288 0
288 135 0
-288 -135 0
136 289 0
-136 -289 0
289 136 0
-289 -136 0
137 290 0
-137 -290 0
290 137 0
-290 -137 0
138 291 0
-138 -291 0
291 138 0
-291 -138 0
139 292 0
-139 -292 0
292 139 0
-292 -139 0
140 293 0
-140 -293 0
293 140 0
-293 -140 0
141 294 0
-141 -294 0
294 141 0
-294 -141 0
142 295 0
-142 -295 0
295 142 0
-295 -142 0
143 296 0
-143 -296 0
296 143 0
-296 -143 0
144 297 0
-144 -297 0
297 144 0
-297 -144 0
145 298 0
-145 -298 0
298 145 0
-298 -145 0
146 299 0
-146 -299 0
299 146 0
-299 -146 0
147 300 0
-147 -300 0
300 147 0
-300 -147 0
148 301 0
-148 -301 0
301 148 0
-301 -148 0
149 302 0
-149 -302 0
302 149 0
-302 -149 0
150 303 0
-150 -303 0
303 150 0
-303 -150 0
151 304 0
-151 -304 0
304 151 0
-304 -151 0
152 305 0
-152 -305 0
305 152 0
-305 -152 0
153 306 0
-153 -306 0
306 153 0
-306 -153 0
154 307 0
-154 -307 0
307 154 0
-307 -154 0
155 308 0
-155 -308 0
308 155 0
-308 -155 0
156 309 0
-156 -309 0
309 156 0
-309 -156 0
157 310 0
-157 -310 0
310 157 0
-310 -157 0
158 311 0
-158 -311 0
311 158 0
-311 -158 0
159 312 0
-159 -312 0
312 159 0
-312 -159 0
160 313 0
-160 -313 0
313 160 0
-313 -160 0
161 314 0
-161 -314 0
314 161 0
-314 -161 0
162 315 0
-162 -315 0
315 162 0
-315 -162 0
163 316 0
-163 -316 0
316 163 0
-316 -163 0
164 317 0
-164 -317 0
317 164 0
-317 -164 0
165 318 0
-165 -318 0
318 165 0
-318 -165 0
166 319 0
-166 -319 0
319 166 0
-319 -166 0
167 320 0
-167 -320 0
320 167 0
-320 -167 0
168 321 0
-168 -321 0
321 168 0
-321 -168 0
169 322 0
-169 -322 0
322 169 0
-322 -169 0
170 323 0
-170 -323 0
323 170 0
-323 -170 0
171 324 0
-171 -324 0
324 171 0
-324 -171 0
172 325 0
-172 -325 0
325 172 0
-325 -172 0
173 326 0
-173 -326 0
326 173 0
-326 -173 0
174 327 0
-174 -327 0
327 174 0
-327 -174 0
175 328 0
-175 -328 0
328 175 0
-328 -175 0
176 329 0
-176 -329 0
329 176 0
-329 -176 0
177 330 0
-177 -330 0
330 177 0
-330 -177 0
178 331 0
-178 -331 0
331 178 0
-331 -178 0
179 332 0
-179 -332 0
332 179 0
-332 -179 0
180 333 0
-180 -333 0
333 180 0
-333 -180 0
181 334 0
-181 -334 0
334 181 0
-334 -181 0
182 335 0
-182 -335 0
335 182 0
-335 -182 0
183 336 0
-183 -336 0
336 183 0
-336 -183 0
184 337 0
-184 -337 0
337 184 0
-337 -184 0
185 338 0
-185 -338 0
338 185 0
-338 -185 0
186 339 0
-186 -339 0
339 186 0
-339 -186 0
187 340 0
-187 -340 0
340 187 0
-340 -187 0
188 341 0
-188 -341 0
341 188 0
-341 -188 0
189 342 0
-189 -342 0
342 189 0
-342 -189 0
190 343 0
-190 -343 0
343 190 0
-343 -190 0
191 344 0
-191 -344 0
344 191 0
-344 -191 0
192 345 0
-192 -345 0
345 192 0
-345 -192 0
193 346 0
-193 -346 0
346 193 0
-346 -193 0
194 347 0
-194 -347 0
347 194 0
-347 -194 0
195 348 0
-195 -348 0
348 195 0
-348 -195 0
196 349 0
-196 -349 0
349 196 0
-349 -196 0
197 350 0
-197 -350 0
350 197 0
-350 -197 0
198 351 0
-198 -351 0
351 198 0
-351 -198 0
199 352 0
-199 -352 0
352 199 0
-352 -199 0
200 353 0
-200 -353 0
353 200 0
-353 -200 0
201 354 0
-201 -354 0
354 201 0
-354 -201 0
202 355 0
-202 -355 0
355 202 0
-355 -202 0
203 356 0
-203 -356 0
356 203 0
-356 -203 0
204 357 0
-204 -357 0
357 204 0
-357 -204 0
205 358 0
-205 -358 0
358 205 0
-358 -205 0
206 359 0
-206 -359 0
359 206 0
-359 -206 0
207 360 0
-207 -360 0
360 207 0
-360 -207 0
208 361 0
-208 -361 0
361 208 0
-361 -208 0
209 362 0
-209 -362 0
362 209 0
-362 -209 0
210 363 0
-210 -363 0
363 210 0
-363 -210 0
211 364 0
-211 -364 0
364 211 0
-364 -211 0
212 365 0
-212 -365 0
365 212 0
-365 -212 0
213 366 0
-213 -366 0
366 213 0
-366 -213 0
214 367 0
-214 -367 0
367 214 0
-367 -214 0
215 368 0
-215 -368 0
368 215 0
-368 -215 0
216 369 0
-216 -369 0
369 216 0
-369 -216 0
217 370 0
-217 -370 0
370 217 0
-370 -217 0
218 371 0
-218 -371 0
371 218 0
-371 -218 0
219 372 0
-219 -372 0
372 219 0
-372 -219 0
220 373 0
-220 -373 0
373 220 0
-373 -220 0
221 374 0
-221 -374 0
374 221 0
-374 -221 0
222 375 0
-222 -375 0
375 222 0
-375 -222 0
223 376 0
-223 -376 0
376 223 0
-376 -223 0
224 377 0
-224 -377 0
377 224 0
-377 -224 0
225 378 0
-225 -378 0
378 225 0
-378 -225 0
226 379 0
-226 -379 0
379 226 0
-379 -226 0
227 380 0
-227 -380 0
380 227 0
-380 -227 0
228 381 0
-228 -381 0
381 228 0
-381 -228 0
229 382 0
-229 -382 0
382 229 0
-382 -229 0
230 383 0
-230 -383 0
383 230 0
-383 -230 0
231 384 0
-231 -384 0
384 231 0
-384 -231 0
232 385 0
-232 -385 0
385 232 0
-385 -232 0
233 386 0
-233 -386 0
386 233 0
-386 -233 0
234 387 0
-234 -387 0
387 234 0
-387 -234 0
235 388 0
-235 -388 0
388 235 0
-388 -235 0
236 389 0
-236 -389 0
389 236 0
-389 -236 0
-1 0
-1 0
-2 0
-3 0
-4 0
-5 0
-6 0
-7 0
-8 0
-9 0
-10 0
-11 0
-12 0
-13 0
-14 0
-15 0
-16 0
-17 0
-18 0
-19 0
-20 0
-21 0
-22 0
-23 0
-24 0
-25 0
-26 0
-27 0
-28 0
-29 0
-30 0
-31 0
-32 0
-33 0
-34 0
-35 0
-36 0
-37 0
-38 0
-39 0
-40 0
-41 0
-42 0
-43 0
-44 0
-45 0
-46 0
-47 0
-48 0
-49 0
-50 0
-51 0
-52 0
-53 0
-54 0
-55 0
-56 0
-57 0
-58 0
-59 0
-60 0
-61 0
-62 0
-63 0
-64 0
-65 0
-66 0
-67 0
-68 0
-69 0
-70 0
-71 0
-72 0
-73 0
-74 0
-75 0
-76 0
-77 0
-78 0
-79 0
-80 0
-81 0
-82 0
-83 0
-84 0
-85 0
-86 0
-87 0
-88 0
-89 0
-90 0
-91 0
-92 0
-93 0
-94 0
-95 0
-96 0
-97 0
-98 0
-99 0
-100 0
-101 0
-102 0
-103 0
-104 0
-105 0
-106 0
-107 0
-108 0
-109 0
-110 0
-111 0
-112 0
-113 0
-114 0
-115 0
-116 0
-117 0
-118 0
-119 0
-120 0
-121 0
-122 0
-123 0
-124 0
-237 0
-238 0
-239 0
-240 0
-241 0
-242 0
-243 0
-244 0
-245 0
-246 0
-247 0
-248 0
-249 0
-250 0
-251 0
-252 0
-253 0
-254 0
-255 0
-256 0
-257 0
-258 0
-259 0
-260 0
-261 0
-262 0
-263 0
-264 0
-265 0
-266 0
-267 0
-268 0
-269 0
-270 0
-271 0
-272 0
-273 0
-274 0
-275 0
-276 0
-277 0
